************************************************************************
file with basedata            : cr331_.bas
initial value random generator: 347866571
************************************************************************
projects                      :  1
jobs (incl. supersource/sink ):  18
horizon                       :  137
RESOURCES
  - renewable                 :  3   R
  - nonrenewable              :  2   N
  - doubly constrained        :  0   D
************************************************************************
PROJECT INFORMATION:
pronr.  #jobs rel.date duedate tardcost  MPM-Time
    1     16      0       29        7       29
************************************************************************
PRECEDENCE RELATIONS:
jobnr.    #modes  #successors   successors
   1        1          3           2   3   4
   2        3          3           6  12  14
   3        3          2           7  11
   4        3          3           5  10  11
   5        3          2           8  14
   6        3          3           7   9  17
   7        3          2          10  15
   8        3          3           9  12  17
   9        3          1          13
  10        3          1          13
  11        3          3          14  16  17
  12        3          2          13  15
  13        3          1          16
  14        3          1          15
  15        3          1          18
  16        3          1          18
  17        3          1          18
  18        1          0        
************************************************************************
REQUESTS/DURATIONS:
jobnr. mode duration  R 1  R 2  R 3  N 1  N 2
------------------------------------------------------------------------
  1      1     0       0    0    0    0    0
  2      1     3       9    2    2    0    4
         2     4       9    1    2    0    2
         3     7       8    1    2    6    0
  3      1     3       6    5    7   10    0
         2     6       5    4    5    9    0
         3     6       5    5    7    0    2
  4      1     7       4   10   10    0    6
         2     9       4    7    5    0    4
         3    10       4    7    2    0    4
  5      1     4       4    9    4    0    9
         2     6       3    9    3    0    7
         3    10       1    7    3    0    7
  6      1     1       8    2    9    0    4
         2     7       7    2    6    8    0
         3    10       4    2    6    0    1
  7      1     2       4   10    7    0    3
         2     8       3    9    5    0    2
         3     9       1    9    4    4    0
  8      1     5       9    5    9    6    0
         2     7       7    4    8    0    7
         3    10       3    4    4    0    1
  9      1     1       5    7    6    4    0
         2     3       2    5    6    4    0
         3     8       1    3    6    3    0
 10      1     1       7    4    6    0    9
         2     7       7    3    6    0    7
         3    10       7    3    6    0    5
 11      1     1       7    8    9    0    5
         2     6       5    6    7    9    0
         3     9       2    5    5    0    4
 12      1     1       8    7    9    0    9
         2     2       5    6    8    8    0
         3     3       4    3    5    0    6
 13      1     9       6    7    6    8    0
         2    10       5    3    4    0    3
         3    10       5    4    3    5    0
 14      1     4       9    7   10    9    0
         2     8       9    6   10    0    3
         3     9       8    4    9    0    2
 15      1     2       6   10    9    1    0
         2     4       6    9    8    0    5
         3    10       3    9    7    0    4
 16      1     3       2    4    8    8    0
         2     4       2    3    7    5    0
         3     6       1    2    4    5    0
 17      1     1       5    5    2    0    3
         2     8       4    4    1    9    0
         3    10       3    3    1    9    0
 18      1     0       0    0    0    0    0
************************************************************************
RESOURCEAVAILABILITIES:
  R 1  R 2  R 3  N 1  N 2
   16   18   17   90   72
************************************************************************
